* ENCODING=ISO-8859-1
NAME          CPLEX
ROWS
 N  obj1    
 G  c1      
 G  c2      
 G  c3      
 G  c4      
 G  c5      
 G  c6      
 G  c7      
 G  c8      
 G  c9      
 G  c10     
 G  c11     
 G  c12     
 G  c13     
 G  c14     
 G  c15     
 G  c16     
 G  c17     
 G  c18     
 G  c19     
 G  c20     
 G  c21     
 G  c22     
 G  c23     
 G  c24     
 G  c25     
 G  c26     
 G  c27     
 G  c28     
 G  c29     
 G  c30     
 G  c31     
 G  c32     
 G  c33     
 G  c34     
 G  c35     
COLUMNS
    MARK0000  'MARKER'                 'INTORG'
    x1        obj1                            1
    x1        c11                           457
    x1        c12                           206
    x1        c13                           457
    x1        c21                           766
    x2        obj1                            1
    x2        c2                            970
    x2        c34                           893
    x3        obj1                            1
    x3        c11                           493
    x3        c21                           190
    x4        obj1                            1
    x4        c31                           337
    x5        obj1                            1
    x5        c1                            743
    x5        c2                            151
    x5        c10                           870
    x5        c12                           560
    x5        c13                           693
    x6        obj1                            1
    x6        c3                            397
    x6        c9                            676
    x6        c35                           262
    x7        obj1                            1
    x7        c14                           502
    x8        obj1                            1
    x8        c6                            576
    x8        c9                            390
    x8        c11                           587
    x8        c17                           118
    x8        c28                           441
    x9        obj1                            1
    x9        c18                           304
    x9        c27                           854
    x9        c29                           592
    x10       obj1                            1
    x10       c6                            183
    x10       c21                           749
    x10       c24                           512
    x10       c31                           302
    x11       obj1                            1
    x11       c2                            543
    x11       c5                            536
    x11       c22                           633
    x11       c25                           891
    x11       c34                           318
    x12       obj1                            1
    x12       c20                           656
    x12       c22                           162
    x12       c27                           930
    x13       obj1                            1
    x13       c15                           707
    x13       c16                           295
    x13       c27                           708
    x14       obj1                            1
    x14       c1                            529
    x14       c17                           754
    x15       obj1                            1
    x15       c6                           1000
    x15       c16                           110
    x15       c33                           828
    x16       obj1                            1
    x16       c11                           155
    x16       c17                           185
    x16       c31                           168
    x16       c34                           576
    x17       obj1                            1
    x17       c4                            530
    x17       c12                           721
    x17       c19                           595
    x17       c33                           934
    x18       obj1                            1
    x18       c1                            592
    x18       c6                            545
    x18       c9                            834
    x18       c13                           209
    x18       c16                           817
    x18       c23                           878
    x19       obj1                            1
    x19       c11                           354
    x19       c15                           908
    x19       c24                           482
    x19       c28                           951
    x20       obj1                            1
    x20       c3                            694
    x20       c14                           787
    x20       c16                           470
    x20       c18                           154
    x20       c25                           201
    x20       c31                           119
    x20       c33                           114
    x21       obj1                            1
    x21       c11                           104
    x21       c14                           739
    x21       c33                           715
    x22       obj1                            1
    x22       c8                            622
    x22       c25                           615
    x22       c30                           343
    x22       c32                           702
    x23       obj1                            1
    x23       c8                            794
    x23       c14                           947
    x23       c18                           148
    x23       c20                           927
    x23       c26                           553
    x23       c29                           686
    x24       obj1                            1
    x24       c16                           315
    x24       c17                           883
    x24       c35                           968
    x25       obj1                            1
    x25       c7                            589
    x25       c17                           946
    x25       c20                           802
    x25       c26                           221
    x25       c29                           262
    x25       c30                           582
    x26       obj1                            1
    x26       c27                           118
    x27       obj1                            1
    x27       c3                            838
    x27       c21                           278
    x27       c22                           423
    x27       c30                           939
    x27       c33                           359
    x28       obj1                            1
    x28       c4                            422
    x28       c10                           715
    x28       c11                           803
    x28       c12                           638
    x29       obj1                            1
    x29       c6                            542
    x29       c9                            477
    x29       c29                           704
    x30       obj1                            1
    x30       c10                           677
    x30       c13                           485
    x30       c18                           751
    x30       c19                           280
    x30       c31                           906
    x30       c32                           112
    x31       obj1                            1
    x31       c1                            939
    x31       c12                           640
    x31       c32                           784
    x32       obj1                            1
    x32       c11                           636
    x32       c19                           626
    x32       c25                           578
    x33       obj1                            1
    x33       c4                            344
    x33       c13                           953
    x33       c24                           721
    x34       obj1                            1
    x34       c13                           997
    x34       c15                           918
    x34       c17                           976
    x34       c20                           990
    x34       c23                           963
    x34       c24                           493
    x34       c26                           869
    x34       c27                           608
    x34       c29                           479
    x35       obj1                            1
    x35       c30                           263
    x35       c31                           228
    x36       obj1                            1
    x36       c10                           833
    x36       c20                           231
    x36       c21                           216
    x36       c23                           833
    x36       c24                           471
    x36       c35                           484
    x37       obj1                            1
    x37       c5                            933
    x37       c13                           791
    x37       c19                           415
    x37       c20                           102
    x37       c24                           533
    x37       c25                           613
    x38       obj1                            1
    x38       c3                            724
    x38       c22                           610
    x38       c30                           186
    x39       obj1                            1
    x39       c5                            842
    x39       c7                            633
    x39       c26                           895
    x39       c29                           959
    x39       c30                           254
    x39       c34                           556
    x39       c35                           321
    x40       obj1                            1
    x40       c1                            789
    x40       c3                            423
    x40       c5                            450
    x40       c6                            622
    x40       c9                            552
    x40       c22                           447
    x40       c26                           892
    x41       obj1                            1
    x41       c5                            469
    x41       c8                            528
    x41       c22                           195
    x41       c29                           575
    x41       c31                           563
    x42       obj1                            1
    x42       c2                            750
    x42       c16                           707
    x42       c29                           505
    x43       obj1                            1
    x43       c13                           694
    x43       c15                           804
    x43       c30                           529
    x44       obj1                            1
    x44       c2                            525
    x44       c7                            224
    x44       c10                           199
    x44       c21                           290
    x44       c24                           767
    x44       c29                           306
    x44       c34                           222
    x44       c35                           957
    x45       obj1                            1
    x45       c17                           463
    x45       c33                           674
    x45       c34                           415
    x46       obj1                            1
    x46       c17                           788
    x46       c22                           741
    x47       obj1                            1
    x47       c20                           763
    x47       c28                           285
    x48       obj1                            1
    x48       c4                            686
    x48       c10                           541
    x48       c13                           264
    x48       c35                           357
    x49       obj1                            1
    x49       c9                            953
    x49       c12                           208
    x49       c15                           753
    x50       obj1                            1
    x50       c10                           899
    x50       c19                           191
    x50       c33                           855
    x51       obj1                            1
    x51       c33                           890
    x52       obj1                            1
    x52       c7                            682
    x52       c12                           799
    x52       c13                           873
    x52       c19                           590
    x52       c25                           865
    x52       c35                           941
    x53       obj1                            1
    x53       c3                            156
    x53       c18                           841
    x53       c24                           311
    x53       c28                           161
    x53       c29                           669
    x53       c34                           976
    x54       obj1                            1
    x54       c10                           416
    x54       c20                           516
    x54       c31                           975
    x54       c32                           754
    x55       obj1                            1
    x55       c15                           588
    x55       c27                           931
    x56       obj1                            1
    x56       c8                            295
    x56       c9                            928
    x56       c20                           439
    x57       obj1                            1
    x57       c24                           797
    x58       obj1                            1
    x58       c17                           461
    x58       c26                           542
    x59       obj1                            1
    x59       c6                            270
    x59       c23                           319
    x59       c33                           258
    x60       obj1                            1
    x60       c7                            765
    x60       c16                           848
    x60       c24                           577
    x60       c35                           388
    x61       obj1                            1
    x62       obj1                            1
    x62       c16                           806
    x62       c18                           188
    x62       c33                           858
    x63       obj1                            1
    x63       c11                           630
    x63       c19                           597
    x63       c25                           727
    x63       c31                           931
    x64       obj1                            1
    x64       c6                            901
    x65       obj1                            1
    x65       c15                           998
    x65       c19                           456
    x65       c20                           484
    x65       c31                           890
    x66       obj1                            1
    x66       c4                            971
    x66       c32                           834
    x67       obj1                            1
    x67       c4                            995
    x67       c26                           385
    x68       obj1                            1
    x68       c27                           842
    x68       c34                           510
    x69       obj1                            1
    x69       c8                            549
    x70       obj1                            1
    x70       c12                           257
    x70       c17                           446
    MARK0001  'MARKER'                 'INTEND'
RHS
    rhs       c1                           1796
    rhs       c2                           1470
    rhs       c3                           1616
    rhs       c4                           1974
    rhs       c5                           1615
    rhs       c6                           2320
    rhs       c7                           1447
    rhs       c8                           1394
    rhs       c9                           2405
    rhs       c10                          2575
    rhs       c11                          2110
    rhs       c12                          2015
    rhs       c13                          3208
    rhs       c14                          1488
    rhs       c15                          2838
    rhs       c16                          2184
    rhs       c17                          3010
    rhs       c18                          1193
    rhs       c19                          1875
    rhs       c20                          2955
    rhs       c21                          1245
    rhs       c22                          1606
    rhs       c23                          1497
    rhs       c24                          2832
    rhs       c25                          2245
    rhs       c26                          2179
    rhs       c27                          2496
    rhs       c28                           919
    rhs       c29                          2869
    rhs       c30                          1548
    rhs       c31                          2710
    rhs       c32                          1593
    rhs       c33                          3243
    rhs       c34                          2233
    rhs       c35                          2339
BOUNDS
 LI bnd       x1        0
 LI bnd       x2        0
 LI bnd       x3        0
 LI bnd       x4        0
 LI bnd       x5        0
 LI bnd       x6        0
 LI bnd       x7        0
 LI bnd       x8        0
 LI bnd       x9        0
 LI bnd       x10       0
 LI bnd       x11       0
 LI bnd       x12       0
 LI bnd       x13       0
 LI bnd       x14       0
 LI bnd       x15       0
 LI bnd       x16       0
 LI bnd       x17       0
 LI bnd       x18       0
 LI bnd       x19       0
 LI bnd       x20       0
 LI bnd       x21       0
 LI bnd       x22       0
 LI bnd       x23       0
 LI bnd       x24       0
 LI bnd       x25       0
 LI bnd       x26       0
 LI bnd       x27       0
 LI bnd       x28       0
 LI bnd       x29       0
 LI bnd       x30       0
 LI bnd       x31       0
 LI bnd       x32       0
 LI bnd       x33       0
 LI bnd       x34       0
 LI bnd       x35       0
 LI bnd       x36       0
 LI bnd       x37       0
 LI bnd       x38       0
 LI bnd       x39       0
 LI bnd       x40       0
 LI bnd       x41       0
 LI bnd       x42       0
 LI bnd       x43       0
 LI bnd       x44       0
 LI bnd       x45       0
 LI bnd       x46       0
 LI bnd       x47       0
 LI bnd       x48       0
 LI bnd       x49       0
 LI bnd       x50       0
 LI bnd       x51       0
 LI bnd       x52       0
 LI bnd       x53       0
 LI bnd       x54       0
 LI bnd       x55       0
 LI bnd       x56       0
 LI bnd       x57       0
 LI bnd       x58       0
 LI bnd       x59       0
 LI bnd       x60       0
 LI bnd       x61       0
 LI bnd       x62       0
 LI bnd       x63       0
 LI bnd       x64       0
 LI bnd       x65       0
 LI bnd       x66       0
 LI bnd       x67       0
 LI bnd       x68       0
 LI bnd       x69       0
 LI bnd       x70       0
ENDATA
